NAME          COPTPROB
OBJSENSE
  MIN
ROWS
 N  __OBJ___
 L  C1604   
 L  C2506   
 L  C4035   
 L  C5750   
 L  C7185   
COLUMNS
    MARKER    'MARKER'                 'INTORG'
    x451      __OBJ___  -1
    x451      C1604     1
    x451      C5750     1
    x971      __OBJ___  -1
    x971      C2506     1
    x971      C5750     1
    x1232     __OBJ___  -1
    x1232     C1604     1
    x1232     C4035     1
    x1761     __OBJ___  -1
    x1761     C4035     1
    x1761     C7185     1
    x3686     __OBJ___  -1
    x3686     C2506     1
    x3686     C7185     1
    MARKER    'MARKER'                 'INTEND'
RHS
    RHS       __OBJ___  2789
    RHS       C1604     1
    RHS       C2506     1
    RHS       C4035     1
    RHS       C5750     1
    RHS       C7185     1
BOUNDS
 UP BOUND     x451      1
 UP BOUND     x971      1
 UP BOUND     x1232     1
 UP BOUND     x1761     1
 UP BOUND     x3686     1
ENDATA
